set V:= 1 2 3 4 5 6 7 8 9 10 11 12;
param: E: w:=
1 3 97
1 4 66
1 6 125
1 8 78
1 9 2
1 10 55
1 11 147
2 4 70
2 7 16
2 8 3
2 9 73
2 10 107
3 4 21
3 5 77
3 6 29
3 7 108
3 8 144
3 10 27
3 11 111
4 5 136
4 6 134
4 8 147
4 11 128
4 12 46
5 10 68
5 12 53
6 8 110
6 9 60
6 11 68
6 12 29
7 8 68
7 9 20
7 10 51
7 11 93
7 12 82
8 9 81
8 10 24
8 11 75
9 10 75
9 11 65
9 12 88
10 12 3
11 12 9;